2697 3968
64 1970
1418 2772
2458 3213
3462 2274
1105 994
3876 3858
1528 3250
958 1077
1639 2901
4807 1418
369 3950
2560 599
3859 4411
221 3288
1271 4033
3011 3785
773 3812
4015 4346
2560 1952
4899 1206
2265 3987
801 3453
313 1068
727 488
3398 4005
2781 3434
3287 1206
1216 1676
2256 2790
2910 4217
4531 2201
3251 1464
4217 645
2486 3444
3656 4292
3085 3012
1078 3693
221 4770
2634 3343
2956 138
1639 2358
636 2035
4604 341
3260 3794
332 184
3628 28
4604 2938
4752 3297
2624 2081
